(set-info :smt-lib-version 2.6)
(set-logic QF_LIA)
(set-info :source |
Alberto Griggio

|)
(set-info :category "random")
(set-info :status sat)
(declare-fun x0 () Int)
(declare-fun x1 () Int)
(declare-fun x2 () Int)
(declare-fun x3 () Int)
(declare-fun x4 () Int)
(declare-fun x5 () Int)
(declare-fun x6 () Int)
(declare-fun x7 () Int)
(declare-fun x8 () Int)
(declare-fun x9 () Int)
(declare-fun x10 () Int)
(declare-fun x11 () Int)
(declare-fun x12 () Int)
(declare-fun x13 () Int)
(declare-fun x14 () Int)
(declare-fun x15 () Int)
(declare-fun x16 () Int)
(declare-fun x17 () Int)
(declare-fun x18 () Int)
(declare-fun x19 () Int)
(assert (let ((?v_12 (* 1 x5)) (?v_0 (* 1 x19)) (?v_41 (* 1 x3)) (?v_1 (* 0 x16)) (?v_13 (* 1 x13)) (?v_19 (* 1 x10)) (?v_2 (* 0 x11)) (?v_31 (* 1 x2)) (?v_28 (* 0 x15)) (?v_38 (* 0 x9)) (?v_7 (* 0 x13)) (?v_20 (* 0 x6)) (?v_5 (* 1 x15)) (?v_42 (* 1 x17)) (?v_18 (* 0 x1)) (?v_10 (* 0 x4)) (?v_6 (* 0 x10)) (?v_25 (* 1 x8)) (?v_9 (* 0 x3)) (?v_17 (* 1 x12)) (?v_30 (* 1 x18)) (?v_53 (* 1 x14)) (?v_22 (* 0 x8)) (?v_32 (* 1 x4)) (?v_15 (* 0 x2)) (?v_16 (* 0 x7)) (?v_51 (* 1 x6)) (?v_11 (* 0 x19)) (?v_46 (* 1 x16)) (?v_4 (* 0 x5)) (?v_48 (* 1 x9)) (?v_21 (* 0 x0)) (?v_24 (* 1 x0)) (?v_36 (* 1 x1)) (?v_52 (* 1 x11)) (?v_44 (* 0 x12)) (?v_27 (* 0 x17)) (?v_49 (* 0 x18)) (?v_55 (* 1 x7)) (?v_37 (* 0 x14)) (?v_40 (* (- 1) x11)) (?v_45 (* (- 1) x18)) (?v_8 (* (- 1) x10)) (?v_3 (* (- 1) x15)) (?v_57 (* (- 1) x12)) (?v_29 (* (- 1) x8)) (?v_23 (* (- 1) x19)) (?v_50 (* (- 1) x2)) (?v_14 (* (- 1) x13)) (?v_26 (* (- 1) x7)) (?v_47 (* (- 1) x6)) (?v_39 (* (- 1) x16)) (?v_34 (* (- 1) x1)) (?v_35 (* (- 1) x0)) (?v_43 (* (- 1) x4)) (?v_33 (* (- 1) x9)) (?v_58 (* (- 1) x5)) (?v_56 (* (- 1) x17)) (?v_54 (* (- 1) x14)) (?v_59 (* (- 1) x3))) (and (<= (+ ?v_12 ?v_0 ?v_40 ?v_45 ?v_4 ?v_41 ?v_0 ?v_1 ?v_1 ?v_13 ?v_8 ?v_19 ?v_27 ?v_2 ?v_6 ?v_2 ?v_31 ?v_1 ?v_28 ?v_38) (- 1)) (<= (+ ?v_7 ?v_2 ?v_0 ?v_20 ?v_3 ?v_15 ?v_5 ?v_3 ?v_4 ?v_5 ?v_6 ?v_6 ?v_42 ?v_9 ?v_18 ?v_16 ?v_11 ?v_7 ?v_8 ?v_9) 0) (<= (+ ?v_10 ?v_7 ?v_6 ?v_8 ?v_57 ?v_10 ?v_25 ?v_7 ?v_3 ?v_11 ?v_29 ?v_9 ?v_12 ?v_17 ?v_30 ?v_23 ?v_50 ?v_6 ?v_13 ?v_7) (- 1)) (<= (+ ?v_53 ?v_14 ?v_22 ?v_21 ?v_32 ?v_9 ?v_26 ?v_14 ?v_15 ?v_15 ?v_37 ?v_16 ?v_16 ?v_10 ?v_47 ?v_51 ?v_17 ?v_18 ?v_39 ?v_34) 1) (<= (+ ?v_19 ?v_11 ?v_0 ?v_35 ?v_20 ?v_20 ?v_46 ?v_4 ?v_48 ?v_21 ?v_43 ?v_13 ?v_18 ?v_22 ?v_2 ?v_21 ?v_24 ?v_23 ?v_2 ?v_2) 0) (<= (+ ?v_16 ?v_22 ?v_33 ?v_44 ?v_24 ?v_25 ?v_26 ?v_27 ?v_28 ?v_29 ?v_15 ?v_36 ?v_2 ?v_30 ?v_1 ?v_15 ?v_20 ?v_7 ?v_52 ?v_31) 1) (<= (+ ?v_11 ?v_32 ?v_7 ?v_33 ?v_34 ?v_35 ?v_4 ?v_13 ?v_15 ?v_36 ?v_19 ?v_4 ?v_35 ?v_37 ?v_38 ?v_39 ?v_40 ?v_9 ?v_36 ?v_17) 1) (<= (+ ?v_41 ?v_26 ?v_0 ?v_42 ?v_7 ?v_27 ?v_31 ?v_43 ?v_44 ?v_6 ?v_39 ?v_2 ?v_29 ?v_20 ?v_22 ?v_17 ?v_45 ?v_0 ?v_45 ?v_1) 0) (<= (+ ?v_15 ?v_46 ?v_5 ?v_17 ?v_21 ?v_20 ?v_10 ?v_12 ?v_9 ?v_11 ?v_20 ?v_13 ?v_23 ?v_10 ?v_11 ?v_13 ?v_36 ?v_30 ?v_27 ?v_1) 1) (<= (+ ?v_42 ?v_47 ?v_27 ?v_15 ?v_27 ?v_32 ?v_2 ?v_28 ?v_45 ?v_29 ?v_49 ?v_45 ?v_38 ?v_48 ?v_49 ?v_50 ?v_6 ?v_47 ?v_37 ?v_58) (- 1)) (<= (+ ?v_13 ?v_51 ?v_30 ?v_44 ?v_19 ?v_39 ?v_29 ?v_32 ?v_43 ?v_15 ?v_9 ?v_52 ?v_19 ?v_2 ?v_16 ?v_10 ?v_16 ?v_33 ?v_43 ?v_17) (- 1)) (<= (+ ?v_48 ?v_7 ?v_18 ?v_33 ?v_6 ?v_20 ?v_22 ?v_30 ?v_21 ?v_1 ?v_11 ?v_3 ?v_1 ?v_7 ?v_24 ?v_50 ?v_26 ?v_10 ?v_10 ?v_18) 0) (<= (+ ?v_53 ?v_9 ?v_22 ?v_19 ?v_7 ?v_28 ?v_28 ?v_38 ?v_15 ?v_33 ?v_40 ?v_15 ?v_3 ?v_23 ?v_10 ?v_33 ?v_18 ?v_44 ?v_35 ?v_3) 0) (<= (+ ?v_20 ?v_28 ?v_27 ?v_14 ?v_4 ?v_53 ?v_15 ?v_28 ?v_12 ?v_21 ?v_21 ?v_51 ?v_21 ?v_17 ?v_16 ?v_36 ?v_39 ?v_16 ?v_32 ?v_11) 0) (<= (+ ?v_38 ?v_55 ?v_32 ?v_38 ?v_26 ?v_28 ?v_53 ?v_10 ?v_1 ?v_33 ?v_32 ?v_53 ?v_49 ?v_2 ?v_56 ?v_15 ?v_54 ?v_37 ?v_18 ?v_54) 0) (<= (+ ?v_20 ?v_10 ?v_39 ?v_18 ?v_48 ?v_25 ?v_45 ?v_15 ?v_52 ?v_50 ?v_10 ?v_10 ?v_6 ?v_2 ?v_37 ?v_55 ?v_11 ?v_44 ?v_6 ?v_31) 0) (<= (+ ?v_1 ?v_30 ?v_30 ?v_33 ?v_56 ?v_27 ?v_9 ?v_1 ?v_31 ?v_0 ?v_22 ?v_38 ?v_11 ?v_16 ?v_41 ?v_45 ?v_44 ?v_7 ?v_49 ?v_56) 0) (<= (+ ?v_16 ?v_13 ?v_17 ?v_11 ?v_17 ?v_11 ?v_10 ?v_0 ?v_38 ?v_26 ?v_37 ?v_22 ?v_45 ?v_7 ?v_17 ?v_52 ?v_20 ?v_4 ?v_43 ?v_22) 0) (<= (+ ?v_27 ?v_37 ?v_4 ?v_20 ?v_16 ?v_57 ?v_3 ?v_18 ?v_7 ?v_50 ?v_15 ?v_32 ?v_25 ?v_38 ?v_3 ?v_38 ?v_46 ?v_20 ?v_35 ?v_5) (- 1)) (<= (+ ?v_0 ?v_16 ?v_7 ?v_38 ?v_51 ?v_54 ?v_0 ?v_32 ?v_50 ?v_21 ?v_16 ?v_18 ?v_3 ?v_56 ?v_38 ?v_35 ?v_42 ?v_7 ?v_9 ?v_16) 0) (<= (+ ?v_36 ?v_1 ?v_20 ?v_29 ?v_11 ?v_11 ?v_53 ?v_7 ?v_54 ?v_33 ?v_9 ?v_37 ?v_10 ?v_20 ?v_29 ?v_28 ?v_37 ?v_37 ?v_42 ?v_53) (- 1)) (<= (+ ?v_38 ?v_1 ?v_15 ?v_1 ?v_15 ?v_58 ?v_9 ?v_37 ?v_8 ?v_35 ?v_2 ?v_42 ?v_49 ?v_6 ?v_42 ?v_33 ?v_19 ?v_27 ?v_2 ?v_49) 0) (<= (+ ?v_31 ?v_33 ?v_35 ?v_1 ?v_57 ?v_38 ?v_23 ?v_16 ?v_45 ?v_34 ?v_4 ?v_22 ?v_5 ?v_52 ?v_15 ?v_16 ?v_3 ?v_31 ?v_21 ?v_11) 1) (<= (+ ?v_7 ?v_10 ?v_14 ?v_7 ?v_8 ?v_38 ?v_13 ?v_59 ?v_28 ?v_57 ?v_51 ?v_39 ?v_43 ?v_45 ?v_6 ?v_37 ?v_10 ?v_12 ?v_38 ?v_59) 0) (<= (+ ?v_27 ?v_7 ?v_54 ?v_42 ?v_16 ?v_37 ?v_44 ?v_5 ?v_13 ?v_22 ?v_52 ?v_18 ?v_22 ?v_7 ?v_26 ?v_9 ?v_37 ?v_43 ?v_11 ?v_32) (- 1)) (<= (+ ?v_6 ?v_14 ?v_59 ?v_40 ?v_2 ?v_11 ?v_18 ?v_49 ?v_14 ?v_42 ?v_10 ?v_19 ?v_2 ?v_26 ?v_18 ?v_24 ?v_22 ?v_21 ?v_38 ?v_1) (- 1)) (<= (+ ?v_0 ?v_4 ?v_51 ?v_49 ?v_26 ?v_27 ?v_10 ?v_51 ?v_2 ?v_27 ?v_31 ?v_41 ?v_9 ?v_14 ?v_39 ?v_21 ?v_27 ?v_16 ?v_16 ?v_41) 1) (<= (+ ?v_55 ?v_33 ?v_28 ?v_37 ?v_21 ?v_44 ?v_11 ?v_31 ?v_19 ?v_15 ?v_22 ?v_0 ?v_18 ?v_17 ?v_32 ?v_36 ?v_33 ?v_1 ?v_5 ?v_59) (- 1)) (<= (+ ?v_7 ?v_53 ?v_55 ?v_58 ?v_3 ?v_55 ?v_22 ?v_11 ?v_7 ?v_50 ?v_2 ?v_2 ?v_16 ?v_28 ?v_55 ?v_20 ?v_40 ?v_45 ?v_22 ?v_2) 0) (<= (+ ?v_32 ?v_37 ?v_16 ?v_32 ?v_6 ?v_20 ?v_4 ?v_27 ?v_28 ?v_53 ?v_6 ?v_11 ?v_21 ?v_49 ?v_44 ?v_12 ?v_31 ?v_38 ?v_10 ?v_48) 1))))
(check-sat)
(exit)
